p cnf 120 508
1 2 3 0
4 5 6 0
7 8 9 0
10 11 12 0
13 14 15 0
16 17 18 0
19 20 21 0
22 23 24 0
25 26 27 0
28 29 30 0
31 32 33 0
34 35 36 0
37 38 39 0
40 41 42 0
43 44 45 0
46 47 48 0
49 50 51 0
52 53 54 0
55 56 57 0
58 59 60 0
61 62 63 0
64 65 66 0
67 68 69 0
70 71 72 0
73 74 75 0
76 77 78 0
79 80 81 0
82 83 84 0
85 86 87 0
88 89 90 0
91 92 93 0
94 95 96 0
97 98 99 0
100 101 102 0
103 104 105 0
106 107 108 0
109 110 111 0
112 113 114 0
115 116 117 0
118 119 120 0
-1 -2 0
-1 -3 0
-2 -3 0
-4 -5 0
-4 -6 0
-5 -6 0
-7 -8 0
-7 -9 0
-8 -9 0
-10 -11 0
-10 -12 0
-11 -12 0
-13 -14 0
-13 -15 0
-14 -15 0
-16 -17 0
-16 -18 0
-17 -18 0
-19 -20 0
-19 -21 0
-20 -21 0
-22 -23 0
-22 -24 0
-23 -24 0
-25 -26 0
-25 -27 0
-26 -27 0
-28 -29 0
-28 -30 0
-29 -30 0
-31 -32 0
-31 -33 0
-32 -33 0
-34 -35 0
-34 -36 0
-35 -36 0
-37 -38 0
-37 -39 0
-38 -39 0
-40 -41 0
-40 -42 0
-41 -42 0
-43 -44 0
-43 -45 0
-44 -45 0
-46 -47 0
-46 -48 0
-47 -48 0
-49 -50 0
-49 -51 0
-50 -51 0
-52 -53 0
-52 -54 0
-53 -54 0
-55 -56 0
-55 -57 0
-56 -57 0
-58 -59 0
-58 -60 0
-59 -60 0
-61 -62 0
-61 -63 0
-62 -63 0
-64 -65 0
-64 -66 0
-65 -66 0
-67 -68 0
-67 -69 0
-68 -69 0
-70 -71 0
-70 -72 0
-71 -72 0
-73 -74 0
-73 -75 0
-74 -75 0
-76 -77 0
-76 -78 0
-77 -78 0
-79 -80 0
-79 -81 0
-80 -81 0
-82 -83 0
-82 -84 0
-83 -84 0
-85 -86 0
-85 -87 0
-86 -87 0
-88 -89 0
-88 -90 0
-89 -90 0
-91 -92 0
-91 -93 0
-92 -93 0
-94 -95 0
-94 -96 0
-95 -96 0
-97 -98 0
-97 -99 0
-98 -99 0
-100 -101 0
-100 -102 0
-101 -102 0
-103 -104 0
-103 -105 0
-104 -105 0
-106 -107 0
-106 -108 0
-107 -108 0
-109 -110 0
-109 -111 0
-110 -111 0
-112 -113 0
-112 -114 0
-113 -114 0
-115 -116 0
-115 -117 0
-116 -117 0
-118 -119 0
-118 -120 0
-119 -120 0
-1 -10 0
-1 -76 0
-1 -82 0
-4 -13 0
-4 -46 0
-4 -64 0
-7 -40 0
-7 -46 0
-7 -73 0
-10 -1 0
-10 -40 0
-10 -64 0
-13 -4 0
-13 -52 0
-13 -70 0
-16 -31 0
-16 -82 0
-16 -94 0
-19 -52 0
-19 -55 0
-22 -31 0
-22 -70 0
-22 -109 0
-25 -28 0
-25 -34 0
-25 -37 0
-28 -25 0
-28 -76 0
-28 -115 0
-31 -16 0
-31 -22 0
-31 -70 0
-34 -25 0
-34 -94 0
-34 -112 0
-37 -25 0
-37 -67 0
-37 -97 0
-40 -7 0
-40 -10 0
-40 -43 0
-43 -40 0
-43 -76 0
-43 -97 0
-46 -4 0
-46 -7 0
-46 -64 0
-49 -55 0
-49 -67 0
-49 -103 0
-52 -13 0
-52 -19 0
-55 -19 0
-55 -49 0
-55 -88 0
-58 -61 0
-58 -94 0
-58 -115 0
-61 -58 0
-61 -100 0
-61 -106 0
-64 -4 0
-64 -10 0
-64 -46 0
-67 -37 0
-67 -49 0
-67 -109 0
-70 -13 0
-70 -22 0
-70 -31 0
-73 -7 0
-73 -82 0
-73 -103 0
-76 -1 0
-76 -28 0
-76 -43 0
-79 -97 0
-79 -106 0
-79 -118 0
-82 -1 0
-82 -16 0
-82 -73 0
-85 -88 0
-85 -106 0
-85 -115 0
-88 -55 0
-88 -85 0
-88 -112 0
-91 -103 0
-91 -109 0
-91 -112 0
-94 -16 0
-94 -34 0
-94 -58 0
-97 -37 0
-97 -43 0
-97 -79 0
-100 -61 0
-100 -118 0
-103 -49 0
-103 -73 0
-103 -91 0
-106 -61 0
-106 -79 0
-106 -85 0
-109 -22 0
-109 -67 0
-109 -91 0
-112 -34 0
-112 -88 0
-112 -91 0
-115 -28 0
-115 -58 0
-115 -85 0
-118 -79 0
-118 -100 0
-2 -11 0
-2 -77 0
-2 -83 0
-5 -14 0
-5 -47 0
-5 -65 0
-8 -41 0
-8 -47 0
-8 -74 0
-11 -2 0
-11 -41 0
-11 -65 0
-14 -5 0
-14 -53 0
-14 -71 0
-17 -32 0
-17 -83 0
-17 -95 0
-20 -53 0
-20 -56 0
-23 -32 0
-23 -71 0
-23 -110 0
-26 -29 0
-26 -35 0
-26 -38 0
-29 -26 0
-29 -77 0
-29 -116 0
-32 -17 0
-32 -23 0
-32 -71 0
-35 -26 0
-35 -95 0
-35 -113 0
-38 -26 0
-38 -68 0
-38 -98 0
-41 -8 0
-41 -11 0
-41 -44 0
-44 -41 0
-44 -77 0
-44 -98 0
-47 -5 0
-47 -8 0
-47 -65 0
-50 -56 0
-50 -68 0
-50 -104 0
-53 -14 0
-53 -20 0
-56 -20 0
-56 -50 0
-56 -89 0
-59 -62 0
-59 -95 0
-59 -116 0
-62 -59 0
-62 -101 0
-62 -107 0
-65 -5 0
-65 -11 0
-65 -47 0
-68 -38 0
-68 -50 0
-68 -110 0
-71 -14 0
-71 -23 0
-71 -32 0
-74 -8 0
-74 -83 0
-74 -104 0
-77 -2 0
-77 -29 0
-77 -44 0
-80 -98 0
-80 -107 0
-80 -119 0
-83 -2 0
-83 -17 0
-83 -74 0
-86 -89 0
-86 -107 0
-86 -116 0
-89 -56 0
-89 -86 0
-89 -113 0
-92 -104 0
-92 -110 0
-92 -113 0
-95 -17 0
-95 -35 0
-95 -59 0
-98 -38 0
-98 -44 0
-98 -80 0
-101 -62 0
-101 -119 0
-104 -50 0
-104 -74 0
-104 -92 0
-107 -62 0
-107 -80 0
-107 -86 0
-110 -23 0
-110 -68 0
-110 -92 0
-113 -35 0
-113 -89 0
-113 -92 0
-116 -29 0
-116 -59 0
-116 -86 0
-119 -80 0
-119 -101 0
-3 -12 0
-3 -78 0
-3 -84 0
-6 -15 0
-6 -48 0
-6 -66 0
-9 -42 0
-9 -48 0
-9 -75 0
-12 -3 0
-12 -42 0
-12 -66 0
-15 -6 0
-15 -54 0
-15 -72 0
-18 -33 0
-18 -84 0
-18 -96 0
-21 -54 0
-21 -57 0
-24 -33 0
-24 -72 0
-24 -111 0
-27 -30 0
-27 -36 0
-27 -39 0
-30 -27 0
-30 -78 0
-30 -117 0
-33 -18 0
-33 -24 0
-33 -72 0
-36 -27 0
-36 -96 0
-36 -114 0
-39 -27 0
-39 -69 0
-39 -99 0
-42 -9 0
-42 -12 0
-42 -45 0
-45 -42 0
-45 -78 0
-45 -99 0
-48 -6 0
-48 -9 0
-48 -66 0
-51 -57 0
-51 -69 0
-51 -105 0
-54 -15 0
-54 -21 0
-57 -21 0
-57 -51 0
-57 -90 0
-60 -63 0
-60 -96 0
-60 -117 0
-63 -60 0
-63 -102 0
-63 -108 0
-66 -6 0
-66 -12 0
-66 -48 0
-69 -39 0
-69 -51 0
-69 -111 0
-72 -15 0
-72 -24 0
-72 -33 0
-75 -9 0
-75 -84 0
-75 -105 0
-78 -3 0
-78 -30 0
-78 -45 0
-81 -99 0
-81 -108 0
-81 -120 0
-84 -3 0
-84 -18 0
-84 -75 0
-87 -90 0
-87 -108 0
-87 -117 0
-90 -57 0
-90 -87 0
-90 -114 0
-93 -105 0
-93 -111 0
-93 -114 0
-96 -18 0
-96 -36 0
-96 -60 0
-99 -39 0
-99 -45 0
-99 -81 0
-102 -63 0
-102 -120 0
-105 -51 0
-105 -75 0
-105 -93 0
-108 -63 0
-108 -81 0
-108 -87 0
-111 -24 0
-111 -69 0
-111 -93 0
-114 -36 0
-114 -90 0
-114 -93 0
-117 -30 0
-117 -60 0
-117 -87 0
-120 -81 0
-120 -102 0
